benchmarks/bfuzz0/208461699539242204951842022838239.smt2
(set-logic QF_FP)
(declare-const x0 (_ FloatingPoint 11 53))
(declare-const x1 (_ FloatingPoint 11 53))
(declare-const x2 (_ FloatingPoint 11 53))
(declare-const x3 (_ FloatingPoint 11 53))
(declare-const x4 (_ FloatingPoint 11 53))
(declare-const x5 (_ FloatingPoint 11 53))
(assert (fp.leq (fp.neg x1) (fp.sub RNE x3 x1)))
(assert (fp.eq (fp.add RNE x2 x4) (fp.add RNE x0 x1)))
(assert (fp.eq (fp.mul RNE x1 x3) (fp.neg x0)))
(assert (fp.lt (fp.add RNE x3 x0) (fp.mul RNE x3 x2)))
(assert (fp.lt (fp.div RNE x4 x0) (fp.add RNE x5 x0)))
(assert (fp.geq (fp.sub RNE x1 x3) (fp.mul RNE x0 x3)))
(assert (fp.eq (fp.sub RNE x2 x0) (fp.div RNE x1 x3)))
(assert (fp.gt (fp.div RNE x2 x2) (fp.neg x4)))
(assert (fp.lt (fp.sub RNE x2 x5) (fp.add RNE x4 x0)))
(assert (fp.eq (fp.add RNE x0 x2) (fp.add RNE x3 x5)))
(assert (fp.gt (fp.div RNE x2 x5) (fp.neg x4)))
(assert (fp.lt (fp.div RNE x5 x1) (fp.add RNE x2 x5)))
(assert (fp.eq (fp.add RNE x0 x2) (fp.add RNE x2 x0)))
(assert (fp.gt (fp.neg x2) (fp.div RNE x5 x4)))
(assert (fp.eq (fp.sub RNE x3 x3) (fp.neg x0)))
(assert (fp.gt (fp.add RNE x0 x0) (fp.add RNE x3 x2)))
(assert (fp.gt (fp.neg x4) (fp.sub RNE x5 x5)))
(assert (fp.leq (fp.neg x4) (fp.add RNE x4 x3)))
(assert (fp.lt (fp.add RNE x2 x2) (fp.div RNE x3 x4)))
(assert (fp.gt (fp.div RNE x5 x2) (fp.neg x3)))
(check-sat)
