db/data/208461699539242204951842022838239.z3.out
unsat
-------------------
1073.130080069
